\ENCODING=ISO-8859-1
\Problem name: Initial

Minimize
 obj: 150 x1 + 130 x2 + 150 x3 + 130 x4 + 150 x5 + 150 x6 + 100 x7 + 100 x8
      + 150 x9 + 130 x10 + 150 x11 + 130 x12 + 150 x13 + 150 x14 + 100 x15
      + 100 x16 + 150 x17 + 130 x18 + 150 x19 + 130 x20 + 150 x21 + 150 x22
      + 100 x23 + 100 x24 + 150 x25 + 130 x26 + 150 x27 + 130 x28 + 150 x29
      + 150 x30 + 100 x31 + 100 x32 + 150 x33 + 130 x34 + 150 x35 + 130 x36
      + 150 x37 + 150 x38 + 100 x39 + 100 x40 + 150 x41 + 130 x42 + 150 x43
      + 130 x44 + 150 x45 + 150 x46 + 100 x47 + 100 x48 + 150 x49 + 130 x50
      + 150 x51 + 130 x52 + 150 x53 + 150 x54 + 100 x55 + 100 x56 + 150 x57
      + 110 x58 + 150 x59 + 130 x60 + 150 x61 + 150 x62 + 100 x63 + 100 x64
Subject To
 Capacity_1: x2 + x9 + x17 + x18 + x25 + x26 + x33 + x34 + x41 + x42 + x49
             + x50 + x57 + x58 >= 22
 c2:         x3 + x4 + x11 + x12 + x20 + x27 + x35 + x36 + x43 + x44 + x51
             + x52 + x59 + x60 >= -4
 c3:         x2 + x5 + x13 + x18 + x21 + x26 + x29 + x34 + x42 + x45 + x50
             + x53 + x58 + x61 >= -4
 c4:         x4 + x6 + x12 + x14 + x20 + x22 + x30 + x36 + x38 + x44 + x52
             + x54 + x60 + x62 >= 22
 c5:         x7 + x15 + x23 + x31 + x39 + x47 + x63 >= 12
 c6:         x8 + x16 + x24 + x32 + x40 + x48 + x56 + 0.2 x58 >= -8
End
